18 50
33 4
71 79
13 191
32 120
71 28
49 58
85 10
26 29
91 42
12 7
37 122
13 184
18 9
51 35
8 87
1 25
24 115
21 55
15 165
24 107
63 56
17 69
46 2
12 128
40 75
47 30
26 112
75 49
6 33
11 104
77 7
2 121
25 24
21 179
21 11
29 47
3 158
81 39
68 13
23 177
33 28
3 24
47 22
80 63
9 189
32 172
11 36
1 35
16 149
